145
100000
39323
1965
5432
3295
4874
56714
8518
67955
1180
34759
64901
38324
14296
11473
38975
14834
4101
7648
11599
1584
30443
45857
35054
21309
26478
37518
17736
8637
41478
40570
37492
6174
30031
29907
19498
24726
33592
56723
54809
39626
4591
30375
33138
722
53323
2925
5400
15461
36044
25216
1528
3619
6473
31364
44198
988
40224
28951
63674
61821
60373
28094
12994
36661
1190
62482
13533
58586
70866
20908
54143
14910
27946
33453
48219
14965
42551
45
8498
61025
28728
12364
18939
47408
14256
25014
36534
31646
20635
70093
24461
58522
21519
8651
33859
54815
37112
74862
37165
48905
30181
16263
28300
8353
23359
9147
20555
39594
39601
22335
7036
42540
29134
60677
24181
24317
58706
16873
36326
71043
6716
54756
57460
38179
62508
47562
65559
70208
19361
16182
41988
36722
54564
6281
14997
37627
25673
15059
71718
73693
45244
60399
11717
7573
13360
